(set-logic HORN)
(declare-fun %main (Bool) Bool)
(declare-fun %main.2 (Int Int Bool Bool) Bool)
(declare-fun %main.3 (Bool Bool) Bool)
(assert (forall ((_! Bool) (_?.1 Bool)) (=> (and (%main.2 1 0 _?.1 _!)) (%main _!))))
(assert (forall ((_1 Int) (_2 Int) (_! Bool))
  (let ((a!1 (and (%main.3 (not (>= _1 _2)) _!))))
    (=> a!1 (%main.2 _1 _2 false _!)))))
(assert (forall ((_1 Int) (_2 Int) (_! Bool) (_?.1 Bool))
  (=> (and (%main.2 (+ _1 _2) (+ _2 1) _?.1 _!)) (%main.2 _1 _2 true _!))))
(assert (forall ((_! Bool)) (=> (and (= _! false)) (%main.3 false _!))))
(assert (forall ((_! Bool)) (=> (and (= _! true)) (%main.3 true _!))))
(assert (forall ((_% Int)) (=> (%main true) false)))
(check-sat)